NAME: concorde91
TYPE: TSP
DIMENSION: 15 
EDGE_WEIGHT_TYPE: EUC_2D
NODE_COORD_SECTION
1 2 68
2 36 27
3 70 18
4 30 33
5 81 12
6 78 23
7 21 94
8 38 79
9 31 45
10 90 11
11 42 89
12 84 82
13 32 19
14 13 60
15 62 4
